1 51 2
-149 -358 -346 -439 -1000 -210 -805 -181 -773 -161 -319 -726 -404 -61 -512 -894 -80 -874 -177 -3 -636 -959 -302 -581 -195 -540 -250 -939 -402 -560 -237 -656 -123 -993 -441 -1000 -273 -113 -567 -515 -886 -167 -726 -124 -488 -885 -249 -747 -189 -335 0 
-11 -498 -225 -351 -524 -529 -503 -63 -344 -947 -491 -82 -674 -722 -294 -774 -590 -421 -180 -613 -211 -682 -146 -525 -786 -530 -394 -850 -566 -277 -18 -76 -200 -282 -43 -70 -482 -968 -375 -207 -970 -735 -422 -66 -592 -764 -693 -95 -901 -360 0 
978 921 11 550 356 412 810 492 383 913 755 600 67 342 444 38 352 255 723 36 245 529 583 474 507 886 48 322 175 524 94 245 648 485 220 613 117 569 468 208 802 878 926 698 30 440 144 473 605 159 1 
11276 
